c Graph 1
p edge 4 0
c Graph 2
p edge 4 1
e 1 4
c Graph 3
p edge 4 2
e 1 4
e 2 4
c Graph 4
p edge 4 3
e 1 4
e 2 4
e 3 4
c Graph 5
p edge 4 2
e 1 3
e 2 4
c Graph 6
p edge 4 3
e 1 3
e 1 4
e 3 4
c Graph 7
p edge 4 3
e 1 3
e 1 4
e 2 4
c Graph 8
p edge 4 4
e 1 3
e 1 4
e 2 4
e 3 4
c Graph 9
p edge 4 4
e 1 3
e 1 4
e 2 3
e 2 4
c Graph 10
p edge 4 5
e 1 3
e 1 4
e 2 3
e 2 4
e 3 4
c Graph 11
p edge 4 6
e 1 2
e 1 3
e 1 4
e 2 3
e 2 4
e 3 4
